; TODO try replacing this with int
(declare-datatype nat ((zero) (s (s_0 nat))))
(declare-datatype tree (par (a) ((Leaf) (Node (Node_0 (tree a)) (Node_1 a) (Node_2 (tree a))))))
(declare-fun plus (nat nat) nat)
(assert (forall ((x nat)) (= (plus zero x) x)))
(assert (forall ((x nat) (y nat)) (= (plus (s x) y) (s (plus x y)))))
(declare-fun mult (nat nat) nat)
(assert (forall ((x nat)) (= (mult zero x) zero)))
(assert (forall ((x nat) (y nat)) (= (mult (s x) y) (plus (mult x y) y))))
(declare-fun minus (nat nat) nat)
(assert (forall ((n nat)) (= (minus zero n) zero) ))
(assert (forall ((n nat)) (= (minus n zero) n) ))
(assert (forall ((n nat) (m nat)) (= (minus (s n) (s m)) (minus n m)) ))
(declare-fun less (par (a) (a a) Bool))
(assert (forall ((x nat)) (not (less nat x zero))))
(assert (forall ((x nat)) (less nat zero (s x))))
(assert (forall ((x nat) (y nat)) (= (less nat (s x) (s y)) (less nat x y))))
(declare-fun leq (par (a) (a a) Bool))
(assert (par (a) (forall ((x a) (y a)) (= (less a x y) (and (leq a x y) (distinct x y))))))
(assert (par (a) (forall ((x a)) (leq a x x))))
(assert (par (a) (forall ((x a) (y a) (z a)) (=> (and (leq a x y) (leq a y z)) (leq a x z)))))
(assert (par (a) (forall ((x a) (y a)) (=> (and (leq a x y) (leq a y x)) (= x y)))))
(assert (par (a) (forall ((x a) (y a)) (or (leq a x y) (leq a y x)))))
(declare-fun pow (nat nat) nat)
(assert (forall ((x nat)) (= (pow x zero) (s zero))))
(assert (forall ((x nat) (e nat)) (= (pow x (s e)) (mult x (pow x e)))))
(declare-fun pow2 (nat) nat)
(assert (forall ((x nat)) (= (pow2 x) (pow (s (s zero)) x))))
(declare-fun size (par (a) ((tree a)) nat))
(assert (par (a) (= (size a (Leaf a)) zero)))
(assert (par (a) (forall ((l (tree a)) (x a) (r (tree a))) (= (size a (Node a l x r)) (s (plus (size a l) (size a r)))))))
(declare-fun size1 (par (a) ((tree a)) nat))
(assert (par (a) (= (size1 a (Leaf a)) (s zero))))
(assert (par (a) (forall ((l (tree a)) (x a) (r (tree a))) (= (size1 a (Node a l x r)) (plus (size1 a l) (size1 a r))))))
(declare-fun rh (par (a) ((tree a) (tree a)) nat))
(assert (par (a) (forall ((l (tree a)) (r (tree a))) (= (rh a l r) (ite (leq nat (size a l) (size a r)) (s zero) zero)))))
(declare-fun rlh (par (a) ((tree a)) nat))
(assert (par (a) (= (rlh a (Leaf a)) zero)))
; TODO this might be different than what was meant in the book because of the minus
(assert (par (a) (forall ((l (tree a)) (x a) (r (tree a))) (= (rlh a (Node a l x r)) (plus (minus (s zero) (rh a l r)) (rlh a l))))))

; rlh t <= lg |t|_1
(assert-not (par (a) (forall ((t (tree a))) (leq nat (pow2 (rlh a t)) (size1 a t)))))
